Set parameter TSPort to value 51199
Set parameter TokenServer to value "open-license1.lanl.gov"
Set parameter TimeLimit to value 8192
Set parameter Threads to value 1
Gurobi Optimizer version 10.0.3 build v10.0.3rc0 (linux64)

CPU model: Intel(R) Xeon(R) CPU E5-2695 v4 @ 2.10GHz, instruction set [SSE2|AVX|AVX2]
Thread count: 36 physical cores, 72 logical processors, using up to 1 threads

Optimize a model with 0 rows, 2396 columns and 0 nonzeros
Model fingerprint: 0x5b2a166b
Model has 10889 quadratic objective terms
Variable types: 0 continuous, 2396 integer (2396 binary)
Coefficient statistics:
  Matrix range     [0e+00, 0e+00]
  Objective range  [2e+00, 3e+01]
  QObjective range [8e+00, 8e+00]
  Bounds range     [1e+00, 1e+00]
  RHS range        [0e+00, 0e+00]
Found heuristic solution: objective 0.0000000
Found heuristic solution: objective -4126.000000
Found heuristic solution: objective -14582.00000
Found heuristic solution: objective -14640.00000
Presolve removed 0 rows and 3 columns
Presolve time: 0.39s
Presolved: 10886 rows, 13279 columns, 32658 nonzeros
Variable types: 0 continuous, 13279 integer (13279 binary)

Root relaxation: objective -2.046700e+04, 3400 iterations, 0.05 seconds (0.02 work units)

    Nodes    |    Current Node    |     Objective Bounds      |     Work
 Expl Unexpl |  Obj  Depth IntInf | Incumbent    BestBd   Gap | It/Node Time

     0     0 -20467.000    0 2393 -14640.000 -20467.000  39.8%     -    0s
     0     0 -19098.000    0 3058 -14640.000 -19098.000  30.5%     -    1s
     0     0 -18865.500    0 3215 -14640.000 -18865.500  28.9%     -    1s
     0     0 -18856.000    0 3214 -14640.000 -18856.000  28.8%     -    1s
     0     0 -18539.250    0 3455 -14640.000 -18539.250  26.6%     -    2s
     0     0 -18539.250    0 3415 -14640.000 -18539.250  26.6%     -    2s
     0     2 -18539.250    0 3400 -14640.000 -18539.250  26.6%     -    5s
   251   253 -17495.500  126 4171 -14640.000 -18528.000  26.6%   107   10s
   550   552 -16441.000  275 4485 -14640.000 -18528.000  26.6%  92.2   15s
   869   871 -15615.500  437 4613 -14640.000 -18528.000  26.6%  78.9   20s
  1011  1013 -15280.000  508 4526 -14640.000 -18528.000  26.6%  75.4   25s
  1365  1311 -14793.500  616 5443 -14640.000 -18527.500  26.6%  66.4   31s
  1370  1314 -17725.200   32 4049 -14640.000 -17725.200  21.1%  66.2   38s
  1373  1316 -14690.500  651 4236 -14640.000 -17666.488  20.7%  66.0   40s
  1379  1320 -17333.770  123 4853 -14640.000 -17333.770  18.4%  65.7   55s
  1380  1321 -15436.000  473 5284 -14640.000 -17237.307  17.7%  65.7   74s
  1381  1322 -17216.267   74 5416 -14640.000 -17216.267  17.6%  65.7   82s
  1382  1322 -15627.500  435 5500 -14640.000 -17210.382  17.6%  65.6   85s
  1390  1328 -14943.000  575 5737 -14640.000 -17206.877  17.5%  65.2   90s
  1392  1329 -14742.000  635 6066 -14640.000 -16926.019  15.6%  65.1  145s
  1393  1330 -16059.500  338 6493 -14640.000 -16875.070  15.3%  65.1  185s
  1394  1330 -14893.000  585 6664 -14640.000 -16861.069  15.2%  65.0  199s
  1395  1331 -16352.000  289 6818 -14640.000 -16857.432  15.1%  65.0  205s
  1397  1332 -16854.503  108 6929 -14640.000 -16854.503  15.1%  64.9  212s
  1399  1334 -16853.848   39 6991 -14640.000 -16853.848  15.1%  64.8  215s
  1405  1338 -16656.558   61 7515 -14640.000 -16656.558  13.8%  64.5  318s
  1406  1338 -16617.791  143 7883 -14640.000 -16617.791  13.5%  64.5  385s
  1407  1339 -14661.500  659 8166 -14640.000 -16607.982  13.4%  64.4  410s
  1408  1340 -14861.500  596 8206 -14640.000 -16604.873  13.4%  64.4  423s
  1409  1340 -16604.074  143 8318 -14640.000 -16604.074  13.4%  64.3  428s
  1410  1341 -16603.691  159 8408 -14640.000 -16603.691  13.4%  64.3  431s
  1413  1343 -14848.500  600 8459 -14640.000 -16603.464  13.4%  64.2  435s
  1416  1345 -16462.109  219 9027 -14640.000 -16462.109  12.4%  64.0  564s
  1417  1346 -14793.500  617 9233 -14640.000 -16434.642  12.3%  64.0  644s
  1418  1346 -16427.789  156 9424 -14640.000 -16427.789  12.2%  63.9  672s
  1419  1347 -16425.385  224 9520 -14640.000 -16425.385  12.2%  63.9  687s
  1420  1348 -15223.000  520 9591 -14640.000 -16424.619  12.2%  63.8  694s
  1421  1348 -14974.000  570 9652 -14640.000 -16424.411  12.2%  63.8  697s
  1423  1350 -16424.232  110 9676 -14640.000 -16424.232  12.2%  63.7  701s
  1428  1353 -15320.000  498 9726 -14640.000 -16424.119  12.2%  63.5  708s
  1429  1354 -16320.703  250 9996 -14640.000 -16320.703  11.5%  63.4  857s
  1430  1354 -16301.238  140 10346 -14640.000 -16301.238  11.3%  63.4  945s
  1431  1355 -16297.870  158 10470 -14640.000 -16297.870  11.3%  63.4  971s
  1432  1356 -15205.000  523 10584 -14640.000 -16296.552  11.3%  63.3  984s
  1433  1356 -16296.016  152 10578 -14640.000 -16296.016  11.3%  63.3  992s
  1434  1357 -16295.816   95 10631 -14640.000 -16295.816  11.3%  63.2  996s
  1436  1358 -16295.719  177 10649 -14640.000 -16295.719  11.3%  63.1 1000s
  1440  1361 -16239.876  219 10702 -14640.000 -16239.876  10.9%  63.0 1139s
  1441  1362 -16228.546  146 10819 -14640.000 -16228.546  10.9%  62.9 1216s
  1442  1362 -16226.415  268 10953 -14640.000 -16226.415  10.8%  62.9 1237s
  1443  1363 -16225.934  201 10954 -14640.000 -16225.934  10.8%  62.8 1248s
  1444  1364 -15312.000  501 11013 -14640.000 -16225.780  10.8%  62.8 1252s
  1445  1364 -16225.725  250 11026 -14640.000 -16225.725  10.8%  62.7 1255s
  1449  1367 -15924.500  362 11021 -14640.000 -16225.677  10.8%  62.6 1261s
  1450  1368 -16185.225   82 10931 -14640.000 -16185.225  10.6%  62.5 1386s
  1451  1368 -15737.500  403 11009 -14640.000 -16177.784  10.5%  62.5 1447s
  1452  1369 -16176.342  261 11069 -14640.000 -16176.342  10.5%  62.4 1466s
  1453  1370 -16175.874  198 11133 -14640.000 -16175.874  10.5%  62.4 1477s
  1454  1370 -16175.711  231 11152 -14640.000 -16175.711  10.5%  62.4 1481s
  1455  1371 -16175.651  136 11183 -14640.000 -16175.651  10.5%  62.3 1485s
  1458  1373 -16175.623  274 11206 -14640.000 -16175.623  10.5%  62.2 1491s
  1459  1374 -15600.500  440 11051 -14640.000 -16144.824  10.3%  62.1 1611s
  1460  1374 -16137.723  141 11166 -14640.000 -16137.723  10.2%  62.1 1675s
  1461  1375 -16136.258  225 11210 -14640.000 -16136.258  10.2%  62.1 1702s
  1462  1376 -16135.960  192 11217 -14640.000 -16135.960  10.2%  62.0 1709s
  1463  1376 -15924.500  362 11251 -14640.000 -16135.883  10.2%  62.0 1712s
  1464  1377 -16135.774  168 11254 -14640.000 -16135.774  10.2%  61.9 1717s
  1467  1379 -16135.734   43 11257 -14640.000 -16135.734  10.2%  61.8 1720s
  1469  1380 -15272.000  510 11243 -14640.000 -16106.542  10.0%  61.7 1847s
  1470  1381 -16100.465   32 11332 -14640.000 -16100.465  10.0%  61.7 1908s
  1471  1382 -16099.404  207 11391 -14640.000 -16099.404  10.0%  61.6 1925s
  1472  1382 -14823.500  607 11400 -14640.000 -16099.156  10.0%  61.6 1931s
  1473  1383 -14690.500  651 11429 -14640.000 -16099.039  10.0%  61.6 1935s
  1476  1385 -16098.971  162 11449 -14640.000 -16098.971  10.0%  61.4 1940s
  1478  1386 -14793.500  617 11287 -14640.000 -16075.743  9.81%  61.3 2140s
  1479  1387 -16071.296  123 11364 -14640.000 -16071.296  9.78%  61.3 2188s
  1480  1388 -15436.000  473 11436 -14640.000 -16070.468  9.77%  61.3 2202s
  1481  1388 -16070.258   74 11454 -14640.000 -16070.258  9.77%  61.2 2208s
  1482  1389 -15627.500  435 11466 -14640.000 -16070.156  9.77%  61.2 2211s
  1484  1390 -15186.000  526 11474 -14640.000 -16070.124  9.77%  61.1 2216s
  1485  1391 -15872.500  372 11350 -14640.000 -16051.148  9.64%  61.1 2332s
  1486  1392 -16047.280   77 11428 -14640.000 -16047.280  9.61%  61.0 2386s
  1487  1392 -15415.000  477 11455 -14640.000 -16046.318  9.61%  61.0 2404s
  1488  1393 -16046.051   25 11485 -14640.000 -16046.051  9.60%  60.9 2411s
  1489  1394 -15458.000  468 11532 -14640.000 -16045.981  9.60%  60.9 2415s
  1493  1396 -16032.954  338 11481 -14640.000 -16032.954  9.51%  60.7 2515s
  1494  1397 -14893.000  585 11515 -14640.000 -16030.081  9.50%  60.7 2561s
  1495  1398 -16029.513  289 11540 -14640.000 -16029.513  9.49%  60.6 2574s
  1496  1398 -16029.328  313 11589 -14640.000 -16029.328  9.49%  60.6 2580s
  1498  1400 -16029.258  307 11626 -14640.000 -16029.258  9.49%  60.5 2585s
  1500  1401 -15371.000  486 11491 -14640.000 -16016.392  9.40%  60.4 2689s
  1501  1402 -15485.500  461 11579 -14640.000 -16013.846  9.38%  60.4 2732s
  1502  1402 -16013.372  267 11601 -14640.000 -16013.372  9.38%  60.4 2743s
  1503  1403 -16013.118  186 11609 -14640.000 -16013.118  9.38%  60.3 2750s
  1505  1404 -16013.035   61 11654 -14640.000 -16013.035  9.38%  60.2 2756s
  1508  1406 -14861.500  596 11594 -14640.000 -16003.703  9.31%  60.1 2848s
  1509  1407 -16002.051  143 11661 -14640.000 -16002.051  9.30%  60.1 2881s
  1510  1408 -16001.632  159 11676 -14640.000 -16001.632  9.30%  60.0 2892s
  1511  1408 -15028.000  558 11714 -14640.000 -16001.517  9.30%  60.0 2897s
  1513  1410 -14848.500  600 11731 -14640.000 -16001.475  9.30%  59.9 2901s
  1515  1411 -15587.500  442 11590 -14640.000 -15990.831  9.23%  59.8 2997s
  1516  1412 -15988.432  219 11688 -14640.000 -15988.432  9.21%  59.8 3033s
  1517  1412 -14793.500  617 11708 -14640.000 -15987.976  9.21%  59.8 3045s
  1518  1413 -15987.804  156 11747 -14640.000 -15987.804  9.21%  59.7 3051s
  1520  1414 -15223.000  520 11759 -14640.000 -15987.753  9.21%  59.6 3056s
  1523  1416 -15978.649  110 11643 -14640.000 -15978.649  9.14%  59.5 3142s
  1524  1417 -15976.898   22 11716 -14640.000 -15976.898  9.13%  59.5 3179s
  1525  1418 -15976.536  274 11769 -14640.000 -15976.536  9.13%  59.5 3190s
  1526  1418 -15976.425  345 11773 -14640.000 -15976.425  9.13%  59.4 3195s
  1529  1420 -15976.391  250 11809 -14640.000 -15976.391  9.13%  59.3 3200s
  1530  1421 -15970.049  140 11662 -14640.000 -15970.049  9.09%  59.3 3275s
  1531  1422 -15968.405  158 11728 -14640.000 -15968.405  9.07%  59.2 3306s
  1532  1422 -15205.000  523 11778 -14640.000 -15968.043  9.07%  59.2 3316s
  1533  1423 -15967.976  152 11763 -14640.000 -15967.976  9.07%  59.1 3321s
  1535  1424 -15960.000  357 11812 -14640.000 -15967.922  9.07%  59.1 3325s
  1538  1426 -15961.657  118 11753 -14640.000 -15961.657  9.03%  58.9 3403s
  1539  1427 -15959.962  179 11811 -14640.000 -15959.962  9.02%  58.9 3440s
  1540  1428 -15959.588  219 11838 -14640.000 -15959.588  9.01%  58.9 3452s
  1541  1428 -15959.494  146 11883 -14640.000 -15959.494  9.01%  58.8 3459s
  1542  1429 -15959.474  268 11890 -14640.000 -15959.474  9.01%  58.8 3461s
  1544  1430 -15312.000  501 11764 -14640.000 -15952.235  8.96%  58.7 3545s
  1545  1431 -15950.243  250 11851 -14640.000 -15950.243  8.95%  58.7 3581s
  1546  1432 -15398.000  480 11865 -14640.000 -15949.703  8.95%  58.6 3599s
  1547  1432 -14804.500  612 11882 -14640.000 -15949.546  8.94%  58.6 3607s
  1548  1433 -15949.515  112 11898 -14640.000 -15949.515  8.94%  58.6 3611s
  1551  1435 -15737.500  403 11888 -14640.000 -15949.451  8.94%  58.5 3616s
  1555  1438 -15949.436  136 11899 -14640.000 -15949.436  8.94%  58.3 3620s
  1566  1446 -14770.500  626 4734 -14640.000 -15949.435  8.94%  1482 3634s
  1567  1447 -15949.435   43 6112 -14640.000 -15949.435  8.94%  1481 3674s
  1568  1448 -15949.435  180 7701 -14640.000 -15949.435  8.94%  1480 3768s
  1569  1448 -15272.000  510 9135 -14640.000 -15949.435  8.94%  1479 3902s
  1570  1449 -15949.435   32 11045 -14640.000 -15949.435  8.94%  1478 4134s
  1571  1450 -15949.435  207 11517 -14640.000 -15949.435  8.94%  1477 4339s
  1572  1450 -14823.500  607 11678 -14640.000 -15949.435  8.94%  1476 4446s
  1573  1451 -14690.500  651 11740 -14640.000 -15949.435  8.94%  1475 4502s
  1574  1452 -15949.435   35 11812 -14640.000 -15949.435  8.94%  1474 4525s
  1575  1452 -15136.000  539 11812 -14640.000 -15949.435  8.94%  1473 4538s
  1576  1453 -15949.435  162 11860 -14640.000 -15949.435  8.94%  1472 4543s
  1577  1454 -15949.435  242 11864 -14640.000 -15949.435  8.94%  1472 4547s
  1578  1454 -14793.500  617 11862 -14640.000 -15949.435  8.94%  1471 4551s
  1580  1456 -15436.000  473 11884 -14640.000 -15949.435  8.94%  1469 4557s
  1581  1456 -15933.551   74 11863 -14640.000 -15933.551  8.84%  1468 4686s
  1582  1457 -15627.500  435 11876 -14640.000 -15931.856  8.82%  1467 4724s
  1583  1458 -15931.590  197 11878 -14640.000 -15931.590  8.82%  1466 4734s
  1584  1458 -15186.000  526 11912 -14640.000 -15931.539  8.82%  1465 4737s
  1585  1459 -15872.500  372 11917 -14640.000 -15931.471  8.82%  1464 4741s
  1587  1460 -15415.000  477 11947 -14640.000 -15931.453  8.82%  1462 4747s
  1588  1461 -15918.237   25 11890 -14640.000 -15918.237  8.73%  1461 4868s
  1589  1462 -15458.000  468 11921 -14640.000 -15916.469  8.72%  1460 4905s
  1590  1462 -14943.000  575 11922 -14640.000 -15916.129  8.72%  1460 4918s
  1591  1463 -14778.500  622 11976 -14640.000 -15916.039  8.72%  1459 4925s
  1594  1465 -14893.000  585 11994 -14640.000 -15916.009  8.72%  1456 4933s
  1595  1466 -15908.238  289 11851 -14640.000 -15908.238  8.66%  1455 5033s
  1596  1466 -15906.467  313 11931 -14640.000 -15906.467  8.65%  1454 5072s
  1597  1467 -15906.131  108 11959 -14640.000 -15906.131  8.65%  1453 5085s
  1598  1468 -15906.061  307 11970 -14640.000 -15906.061  8.65%  1452 5090s
  1601  1470 -15485.500  461 11980 -14640.000 -15906.039  8.65%  1449 5097s
  1602  1470 -15897.750  267 11964 -14640.000 -15897.750  8.59%  1449 5198s
  1603  1471 -15896.015  186 12008 -14640.000 -15896.015  8.58%  1448 5238s
  1604  1472 -15320.000  498 12061 -14640.000 -15895.635  8.58%  1447 5253s
  1605  1472 -15895.517   61 12072 -14640.000 -15895.517  8.58%  1446 5259s
  1606  1473 -15895.491  143 12095 -14640.000 -15895.491  8.58%  1445 5262s
  1609  1475 -15895.481  143 12102 -14640.000 -15895.481  8.58%  1442 5268s
  1610  1476 -15888.269  159 12022 -14640.000 -15888.269  8.53%  1441 5363s
  1611  1476 -15028.000  558 12053 -14640.000 -15887.061  8.52%  1440 5398s
  1612  1477 -15886.736  272 12068 -14640.000 -15886.736  8.52%  1440 5413s
  1613  1478 -14848.500  600 12085 -14640.000 -15886.673  8.52%  1439 5418s
  1614  1478 -15756.500  398 12091 -14640.000 -15886.648  8.52%  1438 5421s
  1616  1480 -15886.638  219 12114 -14640.000 -15886.638  8.52%  1436 5426s
  1617  1480 -14793.500  617 12056 -14640.000 -15881.034  8.48%  1435 5517s
  1618  1481 -15879.869  156 12092 -14640.000 -15879.869  8.47%  1434 5552s
  1619  1482 -15879.558  224 12129 -14640.000 -15879.558  8.47%  1433 5566s
  1620  1482 -15223.000  520 12143 -14640.000 -15879.487  8.47%  1432 5572s
  1622  1484 -15879.473   13 12173 -14640.000 -15879.473  8.47%  1431 5578s
  1623  1484 -15874.373  110 12073 -14640.000 -15874.373  8.43%  1430 5654s
  1624  1485 -15873.144   22 12123 -14640.000 -15873.144  8.42%  1429 5689s
  1625  1486 -15872.984  274 12141 -14640.000 -15872.984  8.42%  1428 5698s
  1626  1486 -15872.932  345 12164 -14640.000 -15872.932  8.42%  1427 5702s
  1628  1488 -15320.000  498 12172 -14640.000 -15872.915  8.42%  1425 5709s
  1629  1488 -15868.233  250 12084 -14640.000 -15868.233  8.39%  1425 5784s
  1630  1489 -15867.020  140 12129 -14640.000 -15867.020  8.38%  1424 5820s
  1631  1490 -15866.783  158 12147 -14640.000 -15866.783  8.38%  1423 5831s
  1632  1490 -15205.000  523 12179 -14640.000 -15866.730  8.38%  1422 5836s
  1633  1491 -15866.625  152 12189 -14640.000 -15866.625  8.38%  1421 5842s
  1634  1492 -15866.596   95 12203 -14640.000 -15866.596  8.38%  1420 5845s
  1636  1493 -15866.589  177 12202 -14640.000 -15866.589  8.38%  1418 5850s
  1637  1494 -15861.283  318 12131 -14640.000 -15861.283  8.34%  1418 5935s
  1638  1494 -15860.145  118 12171 -14640.000 -15860.145  8.33%  1417 5969s
  1639  1495 -15859.884  179 12197 -14640.000 -15859.884  8.33%  1416 5981s
  1640  1496 -15859.830  219 12220 -14640.000 -15859.830  8.33%  1415 5987s
  1642  1497 -15859.811  268 12230 -14640.000 -15859.811  8.33%  1413 5990s
  1643  1498 -15859.808  201 12238 -14640.000 -15859.808  8.33%  1412 5995s
  1644  1498 -15312.000  501 12149 -14640.000 -15856.024  8.31%  1412 6065s
  1645  1499 -15855.063  250 12194 -14640.000 -15855.063  8.30%  1411 6097s
  1646  1500 -15398.000  480 12189 -14640.000 -15854.909  8.30%  1410 6106s
  1647  1500 -14804.500  612 12203 -14640.000 -15854.811  8.30%  1409 6112s
  1648  1501 -15854.790  112 12228 -14640.000 -15854.790  8.30%  1408 6115s
  1650  1502 -15854.779   82 12230 -14640.000 -15854.779  8.30%  1406 6121s
  1651  1503 -15737.500  403 12155 -14640.000 -15850.503  8.27%  1406 6197s
  1652  1504 -15849.356  261 12215 -14640.000 -15849.356  8.26%  1405 6236s
  1653  1504 -15849.087  198 12215 -14640.000 -15849.087  8.26%  1404 6249s
  1654  1505 -15849.006  231 12226 -14640.000 -15849.006  8.26%  1403 6256s
  1657  1507 -15848.978  176 12256 -14640.000 -15848.978  8.26%  1400 6264s
  1658  1508 -15845.431  274 12185 -14640.000 -15845.431  8.23%  1400 6329s
  1659  1508 -15600.500  440 12224 -14640.000 -15844.725  8.23%  1399 6354s
  1660  1509 -15844.594  141 12256 -14640.000 -15844.594  8.23%  1398 6363s
  1661  1510 -15844.555  225 12257 -14640.000 -15844.555  8.23%  1397 6367s
  1662  1510 -15844.537  192 12278 -14640.000 -15844.537  8.23%  1396 6370s
  1664  1512 -15844.531  168 12295 -14640.000 -15844.531  8.23%  1395 6376s
  1665  1512 -14793.500  616 12196 -14640.000 -15842.123  8.21%  1394 6430s
  1666  1513 -14770.500  626 12231 -14640.000 -15841.485  8.21%  1393 6457s
  1667  1514 -15841.366   43 12288 -14640.000 -15841.366  8.21%  1392 6466s
  1669  1515 -15272.000  510 12285 -14640.000 -15841.322  8.21%  1390 6471s
  1671  1516 -15841.311  207 12304 -14640.000 -15841.311  8.21%  1389 6478s
  1672  1517 -14823.500  607 12228 -14640.000 -15838.830  8.19%  1388 6528s
  1673  1518 -14690.500  651 12278 -14640.000 -15838.248  8.18%  1387 6551s
  1674  1518 -15838.131   35 12310 -14640.000 -15838.131  8.18%  1386 6560s
  1676  1520 -15838.072  162 12339 -14640.000 -15838.072  8.18%  1385 6566s
  1678  1521 -14793.500  617 12355 -14640.000 -15838.064  8.18%  1383 6572s
  1679  1522 -15836.382  123 12252 -14640.000 -15836.382  8.17%  1382 6613s
  1680  1522 -15436.000  473 12306 -14640.000 -15835.832  8.17%  1381 6637s
  1681  1523 -15835.717   74 12318 -14640.000 -15835.717  8.17%  1380 6645s
  1683  1524 -15835.681  197 12347 -14640.000 -15835.681  8.17%  1379 6650s
  1685  1526 -15833.025  372 12264 -14640.000 -15833.025  8.15%  1377 6718s
  1686  1526 -15832.574   77 12309 -14640.000 -15832.574  8.15%  1376 6740s
  1687  1527 -15415.000  477 12324 -14640.000 -15832.473  8.15%  1376 6748s
  1688  1528 -15832.436   25 12359 -14640.000 -15832.436  8.15%  1375 6753s
  1690  1529 -14943.000  575 12373 -14640.000 -15832.425  8.14%  1373 6758s
  1691  1530 -14778.500  622 12313 -14640.000 -15830.542  8.13%  1372 6801s
  1692  1530 -14742.000  635 12313 -14640.000 -15830.020  8.13%  1372 6824s
  1693  1531 -15829.809  338 12343 -14640.000 -15829.809  8.13%  1371 6838s
  1694  1532 -14893.000  585 12355 -14640.000 -15829.770  8.13%  1370 6843s
  1696  1533 -15829.760  313 12363 -14640.000 -15829.760  8.13%  1368 6849s
  1697  1534 -15827.772  108 12302 -14640.000 -15827.772  8.11%  1367 6900s
  1698  1534 -15827.195  307 12338 -14640.000 -15827.195  8.11%  1367 6924s
  1699  1535 -15827.112   39 12362 -14640.000 -15827.112  8.11%  1366 6931s
  1700  1536 -15371.000  486 12363 -14640.000 -15827.085  8.11%  1365 6935s
  1702  1537 -15827.077  267 12388 -14640.000 -15827.077  8.11%  1363 6941s
  1703  1538 -15825.596  186 12309 -14640.000 -15825.596  8.10%  1363 6983s
  1704  1538 -15320.000  498 12358 -14640.000 -15825.125  8.10%  1362 7002s
  1705  1539 -15825.034   61 12374 -14640.000 -15825.034  8.09%  1361 7009s
  1706  1540 -15824.979  143 12373 -14640.000 -15824.979  8.09%  1360 7014s
  1707  1540 -14661.500  659 12391 -14640.000 -15824.962  8.09%  1359 7016s
  1709  1542 -15824.956  143 12397 -14640.000 -15824.956  8.09%  1358 7020s
  1710  1542 -15822.949  159 12316 -14640.000 -15822.949  8.08%  1357 7069s
  1711  1543 -15028.000  558 12345 -14640.000 -15822.288  8.08%  1356 7096s
  1712  1544 -15822.118  272 12375 -14640.000 -15822.118  8.07%  1355 7107s
  1713  1544 -14848.500  600 12388 -14640.000 -15822.078  8.07%  1355 7112s
  1715  1546 -15587.500  442 12406 -14640.000 -15822.064  8.07%  1353 7117s
  1716  1546 -15820.142  219 12322 -14640.000 -15820.142  8.06%  1352 7168s
  1717  1547 -14793.500  617 12369 -14640.000 -15819.394  8.06%  1352 7200s
  1718  1548 -15819.229  156 12391 -14640.000 -15819.229  8.05%  1351 7213s
  1719  1548 -15819.182  224 12421 -14640.000 -15819.182  8.05%  1350 7218s
  1720  1549 -15223.000  520 12429 -14640.000 -15819.169  8.05%  1349 7220s
  1722  1550 -15817.910   13 12367 -14640.000 -15817.910  8.05%  1348 7263s
  1723  1551 -15817.469  110 12399 -14640.000 -15817.469  8.04%  1347 7284s
  1724  1552 -15817.393   22 12432 -14640.000 -15817.393  8.04%  1346 7291s
  1725  1552 -15817.346  274 12434 -14640.000 -15817.346  8.04%  1345 7297s
  1727  1554 -15355.000  489 12451 -14640.000 -15817.327  8.04%  1344 7300s
  1729  1555 -15815.721  250 12360 -14640.000 -15815.721  8.03%  1342 7350s
  1730  1556 -15815.293  140 12398 -14640.000 -15815.293  8.03%  1341 7371s
  1731  1556 -15815.199  158 12414 -14640.000 -15815.199  8.03%  1341 7379s
  1732  1557 -15205.000  523 12419 -14640.000 -15815.167  8.03%  1340 7383s
  1733  1558 -15815.153  152 12431 -14640.000 -15815.153  8.03%  1339 7385s
  1735  1559 -15815.146  357 12439 -14640.000 -15815.146  8.03%  1338 7391s
  1736  1560 -15813.744  177 12388 -14640.000 -15813.744  8.02%  1337 7432s
  1737  1560 -15813.300  318 12427 -14640.000 -15813.300  8.01%  1336 7452s
  1738  1561 -15813.207  118 12443 -14640.000 -15813.207  8.01%  1335 7460s
  1740  1562 -15813.174  219 12459 -14640.000 -15813.174  8.01%  1334 7465s
  1742  1564 -15813.167  268 12463 -14640.000 -15813.167  8.01%  1332 7471s
  1743  1564 -15811.660  201 12394 -14640.000 -15811.660  8.00%  1331 7515s
  1744  1565 -15312.000  501 12410 -14640.000 -15811.177  8.00%  1331 7538s
  1745  1566 -15811.097  250 12433 -14640.000 -15811.097  8.00%  1330 7546s
  1746  1566 -15398.000  480 12461 -14640.000 -15811.069  8.00%  1329 7550s
  1748  1568 -15811.056  112 12471 -14640.000 -15811.056  8.00%  1328 7556s
  1749  1568 -15810.389  362 12421 -14640.000 -15810.389  7.99%  1327 7582s
  1750  1569 -15810.168   82 12439 -14640.000 -15810.168  7.99%  1326 7597s
  1751  1570 -15737.500  403 12456 -14640.000 -15810.137  7.99%  1325 7601s
  1753  1571 -15810.123  198 12464 -14640.000 -15810.123  7.99%  1324 7608s
  1754  1572 -15809.251  231 12416 -14640.000 -15809.251  7.99%  1323 7639s
  1755  1572 -15808.945  136 12441 -14640.000 -15808.945  7.98%  1322 7656s
  1756  1573 -15320.000  498 12464 -14640.000 -15808.873  7.98%  1322 7664s
  1757  1574 -15808.849  176 12466 -14640.000 -15808.849  7.98%  1321 7667s
  1758  1574 -15808.836  274 12464 -14640.000 -15808.836  7.98%  1320 7670s
  1760  1576 -15808.827  141 12478 -14640.000 -15808.827  7.98%  1319 7676s
  1761  1576 -15807.819  225 12431 -14640.000 -15807.819  7.98%  1318 7709s
  1762  1577 -15807.525  192 12439 -14640.000 -15807.525  7.97%  1317 7728s
  1763  1578 -15807.412  362 12476 -14640.000 -15807.412  7.97%  1316 7738s
  1764  1578 -15807.376  168 12487 -14640.000 -15807.376  7.97%  1316 7742s
  1766  1580 -14770.500  626 12504 -14640.000 -15807.364  7.97%  1314 7749s
  1767  1580 -15806.447   43 12436 -14640.000 -15806.447  7.97%  1313 7782s
  1768  1581 -15806.159  180 12468 -14640.000 -15806.159  7.97%  1313 7798s
  1769  1582 -15272.000  510 12475 -14640.000 -15806.101  7.97%  1312 7804s
  1770  1582 -15806.074   32 12495 -14640.000 -15806.074  7.96%  1311 7808s
  1771  1583 -15806.065  207 12504 -14640.000 -15806.065  7.96%  1310 7810s
  1772  1584 -14823.500  607 12507 -14640.000 -15806.062  7.96%  1310 7815s
  1773  1584 -14690.500  651 12446 -14640.000 -15805.108  7.96%  1309 7849s
  1774  1585 -15804.906   35 12465 -14640.000 -15804.906  7.96%  1308 7863s
  1775  1586 -15136.000  539 12471 -14640.000 -15804.814  7.96%  1307 7870s
  1777  1587 -15804.790  242 12500 -14640.000 -15804.790  7.96%  1306 7875s
  1778  1588 -14793.500  617 12507 -14640.000 -15804.786  7.96%  1305 7881s
  1779  1588 -15803.716  123 12404 -14640.000 -15803.716  7.95%  1304 7915s
  1780  1589 -15436.000  473 12435 -14640.000 -15803.390  7.95%  1304 7934s
  1781  1590 -15803.322   74 12459 -14640.000 -15803.322  7.95%  1303 7941s
  1783  1591 -15803.296  197 12492 -14640.000 -15803.296  7.95%  1302 7946s
  1784  1592 -15186.000  526 12490 -14640.000 -15803.295  7.95%  1301 7950s
  1785  1592 -15802.209  372 12396 -14640.000 -15802.209  7.94%  1300 7984s
  1786  1593 -15801.830   77 12449 -14640.000 -15801.830  7.94%  1299 8002s
  1787  1594 -15415.000  477 12454 -14640.000 -15801.748  7.94%  1299 8009s
  1788  1594 -15801.723   25 12474 -14640.000 -15801.723  7.94%  1298 8013s
  1790  1596 -14943.000  575 12483 -14640.000 -15801.713  7.94%  1296 8018s
  1791  1596 -14778.500  622 12443 -14640.000 -15800.754  7.93%  1296 8050s
  1792  1597 -14742.000  635 12482 -14640.000 -15800.475  7.93%  1295 8065s
  1793  1598 -15800.412  338 12476 -14640.000 -15800.412  7.93%  1294 8072s
  1794  1598 -14893.000  585 12505 -14640.000 -15800.393  7.93%  1294 8075s
  1796  1600 -15800.381  313 12515 -14640.000 -15800.381  7.93%  1292 8082s
  1797  1600 -15799.438  108 12450 -14640.000 -15799.438  7.92%  1291 8114s
  1798  1601 -15799.180  307 12493 -14640.000 -15799.180  7.92%  1291 8128s
  1799  1602 -15799.101   39 12495 -14640.000 -15799.101  7.92%  1290 8135s
  1801  1603 -15485.500  461 12521 -14640.000 -15799.076  7.92%  1289 8140s
  1803  1604 -15799.070  186 12527 -14640.000 -15799.070  7.92%  1287 8146s
  1804  1605 -15320.000  498 12471 -14640.000 -15797.934  7.91%  1286 8181s

Cutting planes:
  Gomory: 58
  MIR: 409
  Flow cover: 5149
  Zero half: 1520
  Mod-K: 33
  RLT: 485
  BQP: 737

Explored 1804 nodes (5018527 simplex iterations) in 8192.00 seconds (13094.41 work units)
Thread count was 1 (of 72 available processors)

Solution count 4: -14640 -14582 -4126 0 

Time limit reached
Best objective -1.464000000000e+04, best bound -1.579600000000e+04, gap 7.8962%

User-callback calls 39008, time in user-callback 0.18 sec

BQP_SOLUTION, 2396, 10889, -5062.000000, 8192.001344, 1, 1, -1, 1, -1, -1, 1, 1, -1, 1, -1, 1, 1, -1, 1, -1, 1, -1, 1, -1, 1, 1, -1, -1, 1, 1, 1, -1, 1, -1, 1, 1, -1, 1, 1, -1, 1, 1, -1, 1, 1, 1, 1, -1, 1, 1, 1, -1, 1, -1, 1, 1, -1, 1, 1, -1, -1, 1, -1, 1, 1, 1, -1, -1, 1, 1, 1, -1, 1, 1, 1, 1, -1, -1, -1, -1, -1, 1, 1, -1, 1, 1, -1, -1, -1, 1, -1, 1, 1, 1, 1, 1, -1, -1, -1, 1, -1, 1, 1, 1, 1, 1, 1, -1, -1, 1, -1, -1, 1, 1, 1, 1, -1, -1, -1, 1, -1, 1, 1, 1, 1, 1, -1, -1, 1, -1, -1, 1, 1, 1, 1, 1, -1, 1, -1, 1, -1, 1, 1, -1, 1, 1, 1, -1, -1, 1, 1, 1, -1, 1, 1, -1, -1, -1, 1, -1, -1, 1, 1, -1, 1, 1, -1, -1, -1, -1, -1, 1, -1, 1, 1, 1, 1, -1, -1, -1, -1, 1, 1, 1, 1, 1, 1, -1, 1, -1, 1, 1, 1, -1, 1, -1, 1, 1, 1, 1, -1, 1, 1, 1, 1, -1, 1, -1, -1, -1, 1, 1, 1, -1, 1, 1, 1, 1, -1, 1, -1, 1, 1, 1, 1, -1, 1, -1, 1, -1, 1, 1, 1, -1, 1, 1, 1, -1, 1, -1, 1, 1, 1, -1, -1, 1, -1, 1, -1, 1, 1, 1, 1, -1, 1, -1, -1, 1, -1, 1, 1, 1, -1, -1, 1, 1, 1, 1, -1, 1, 1, 1, -1, -1, -1, -1, 1, -1, -1, 1, 1, 1, 1, 1, 1, 1, 1, 1, -1, 1, 1, 1, 1, -1, -1, -1, 1, 1, -1, -1, 1, 1, -1, 1, 1, -1, 1, -1, -1, -1, 1, 1, 1, 1, -1, -1, 1, -1, -1, 1, 1, 1, 1, -1, -1, -1, 1, 1, -1, 1, -1, 1, 1, -1, 1, 1, 1, -1, -1, 1, 1, 1, -1, 1, -1, 1, 1, -1, -1, 1, 1, -1, 1, -1, -1, -1, 1, -1, -1, 1, -1, -1, -1, 1, 1, -1, -1, -1, 1, 1, -1, 1, -1, 1, 1, 1, -1, -1, 1, 1, 1, 1, 1, 1, 1, 1, 1, -1, 1, 1, -1, 1, 1, 1, 1, 1, -1, -1, -1, 1, -1, 1, 1, 1, 1, 1, 1, -1, 1, 1, 1, 1, 1, 1, 1, 1, -1, 1, -1, -1, 1, 1, 1, -1, 1, -1, -1, 1, 1, -1, 1, 1, 1, 1, 1, -1, -1, -1, 1, -1, 1, 1, -1, -1, 1, 1, 1, -1, 1, -1, 1, 1, 1, 1, 1, -1, 1, -1, 1, 1, -1, 1, 1, -1, 1, 1, -1, -1, -1, 1, -1, 1, -1, 1, -1, -1, 1, -1, 1, 1, 1, 1, 1, -1, 1, -1, 1, 1, -1, -1, 1, 1, -1, -1, 1, 1, 1, -1, -1, -1, 1, -1, 1, -1, -1, -1, 1, -1, 1, 1, 1, 1, 1, -1, 1, -1, 1, -1, 1, -1, 1, 1, 1, -1, -1, 1, 1, 1, -1, 1, 1, 1, 1, -1, -1, -1, 1, -1, -1, 1, -1, 1, 1, -1, -1, -1, -1, -1, -1, 1, 1, 1, -1, 1, -1, 1, 1, -1, -1, -1, 1, 1, 1, -1, 1, -1, -1, -1, -1, -1, -1, 1, 1, 1, 1, -1, -1, 1, -1, 1, -1, 1, 1, 1, -1, 1, -1, 1, -1, 1, -1, 1, 1, 1, -1, -1, -1, 1, -1, 1, -1, 1, 1, 1, -1, -1, 1, -1, 1, 1, 1, 1, 1, 1, -1, -1, 1, -1, -1, -1, 1, 1, -1, 1, -1, -1, 1, -1, 1, 1, -1, 1, -1, 1, 1, -1, 1, -1, 1, 1, 1, 1, -1, 1, 1, -1, 1, -1, 1, -1, 1, 1, 1, 1, -1, 1, 1, -1, 1, -1, 1, 1, 1, 1, -1, 1, 1, -1, 1, -1, 1, 1, 1, 1, 1, 1, 1, 1, -1, 1, 1, -1, 1, 1, -1, -1, 1, 1, -1, 1, -1, -1, 1, 1, -1, 1, 1, 1, -1, 1, 1, 1, 1, 1, -1, 1, 1, -1, 1, -1, 1, 1, 1, 1, -1, 1, 1, -1, -1, 1, 1, -1, 1, -1, -1, 1, 1, -1, 1, 1, 1, 1, 1, 1, 1, 1, -1, 1, -1, 1, -1, 1, 1, 1, 1, 1, 1, -1, -1, -1, -1, 1, 1, 1, 1, 1, -1, 1, -1, 1, 1, 1, 1, 1, -1, 1, -1, 1, 1, -1, 1, -1, 1, 1, -1, 1, 1, 1, -1, 1, -1, 1, 1, 1, -1, 1, 1, 1, 1, 1, -1, 1, 1, -1, 1, 1, -1, 1, 1, -1, 1, 1, 1, 1, 1, 1, -1, -1, 1, 1, -1, 1, 1, 1, -1, 1, 1, -1, -1, 1, 1, -1, 1, 1, -1, -1, -1, -1, 1, -1, 1, 1, -1, 1, 1, 1, -1, -1, -1, 1, 1, 1, 1, 1, -1, -1, -1, 1, -1, 1, 1, -1, 1, 1, -1, 1, 1, -1, 1, 1, -1, 1, 1, -1, -1, 1, 1, -1, 1, 1, -1, -1, 1, -1, -1, -1, 1, -1, 1, 1, -1, -1, 1, -1, -1, -1, 1, -1, -1, 1, -1, -1, 1, -1, -1, 1, 1, 1, 1, 1, 1, -1, 1, -1, -1, 1, 1, -1, 1, -1, 1, 1, 1, -1, -1, 1, -1, 1, 1, 1, 1, -1, 1, 1, -1, 1, 1, -1, 1, 1, 1, -1, 1, 1, 1, -1, 1, 1, -1, 1, 1, -1, 1, -1, -1, -1, 1, 1, 1, -1, 1, -1, 1, -1, -1, -1, 1, 1, -1, -1, 1, -1, -1, 1, -1, 1, 1, 1, 1, -1, -1, -1, 1, -1, -1, 1, 1, 1, 1, 1, -1, -1, -1, 1, -1, 1, 1, 1, -1, 1, 1, -1, -1, 1, -1, 1, 1, 1, 1, -1, -1, 1, -1, 1, -1, -1, 1, 1, 1, -1, 1, -1, -1, 1, -1, 1, 1, 1, 1, -1, 1, -1, -1, 1, -1, 1, 1, -1, 1, 1, -1, -1, -1, 1, -1, 1, 1, 1, 1, 1, 1, -1, -1, 1, -1, -1, 1, 1, 1, -1, -1, -1, 1, -1, 1, 1, 1, 1, 1, 1, 1, -1, -1, 1, 1, 1, 1, 1, 1, 1, -1, 1, -1, 1, -1, 1, -1, 1, -1, 1, -1, -1, -1, -1, 1, 1, -1, -1, 1, -1, 1, 1, -1, 1, -1, -1, 1, 1, 1, 1, -1, -1, -1, -1, -1, 1, 1, 1, 1, -1, -1, 1, -1, -1, -1, 1, 1, 1, 1, 1, -1, -1, -1, 1, -1, 1, 1, 1, 1, 1, 1, -1, 1, -1, 1, 1, 1, -1, 1, 1, -1, -1, 1, -1, -1, 1, -1, 1, 1, 1, -1, -1, -1, -1, -1, 1, 1, 1, 1, -1, -1, -1, 1, -1, -1, 1, 1, 1, 1, 1, -1, -1, 1, 1, -1, -1, 1, 1, 1, 1, 1, -1, 1, -1, 1, -1, 1, 1, -1, 1, -1, 1, -1, -1, -1, 1, -1, -1, 1, 1, -1, -1, -1, 1, 1, 1, -1, -1, -1, 1, 1, 1, -1, -1, 1, 1, -1, -1, 1, -1, 1, -1, -1, -1, 1, 1, -1, -1, -1, 1, 1, -1, -1, -1, -1, 1, -1, -1, -1, -1, 1, -1, -1, -1, 1, -1, -1, -1, -1, 1, -1, -1, -1, 1, 1, -1, -1, -1, -1, 1, 1, -1, -1, 1, -1, 1, -1, -1, 1, 1, 1, -1, -1, -1, -1, 1, -1, -1, -1, 1, 1, 1, -1, 1, -1, 1, 1, 1, -1, 1, 1, -1, -1, 1, -1, 1, -1, -1, -1, 1, -1, -1, -1, 1, -1, 1, -1, 1, 1, 1, -1, -1, -1, 1, -1, 1, 1, 1, -1, 1, 1, -1, 1, 1, 1, -1, 1, -1, 1, -1, 1, -1, -1, 1, -1, -1, 1, -1, 1, -1, 1, -1, 1, -1, -1, 1, 1, 1, -1, -1, 1, -1, 1, 1, -1, 1, 1, 1, -1, 1, 1, -1, -1, 1, -1, 1, 1, -1, 1, -1, 1, -1, 1, -1, -1, 1, 1, 1, 1, -1, 1, 1, -1, 1, -1, 1, -1, 1, 1, -1, 1, -1, 1, 1, -1, 1, -1, 1, 1, -1, 1, -1, -1, 1, -1, 1, 1, -1, 1, -1, 1, -1, 1, 1, -1, 1, 1, -1, 1, 1, 1, 1, -1, -1, 1, 1, 1, -1, 1, 1, 1, 1, -1, 1, 1, 1, 1, -1, 1, 1, 1, 1, -1, -1, 1, 1, -1, 1, 1, 1, 1, 1, -1, 1, 1, -1, -1, 1, 1, 1, 1, 1, -1, 1, -1, 1, 1, -1, 1, 1, 1, 1, 1, -1, 1, 1, -1, 1, -1, 1, 1, -1, -1, 1, 1, -1, -1, 1, -1, 1, 1, 1, -1, -1, 1, 1, -1, 1, 1, 1, 1, 1, -1, -1, 1, -1, -1, 1, -1, 1, 1, -1, -1, 1, 1, -1, -1, 1, 1, 1, 1, 1, -1, -1, -1, 1, -1, 1, 1, 1, 1, -1, 1, -1, 1, 1, -1, 1, 1, -1, 1, 1, -1, -1, 1, 1, -1, 1, 1, -1, 1, 1, 1, -1, -1, -1, -1, 1, -1, -1, 1, 1, -1, -1, 1, -1, 1, 1, 1, 1, 1, 1, 1, 1, 1, -1, 1, -1, 1, -1, 1, -1, 1, 1, -1, -1, -1, 1, -1, 1, 1, -1, 1, -1, 1, -1, 1, -1, -1, 1, -1, 1, -1, -1, 1, -1, 1, -1, -1, -1, 1, 1, -1, 1, -1, -1, 1, 1, 1, -1, -1, 1, 1, -1, -1, -1, 1, -1, 1, -1, 1, 1, 1, 1, -1, -1, 1, -1, 1, -1, 1, 1, -1, 1, -1, -1, 1, -1, -1, -1, -1, 1, -1, 1, -1, -1, 1, 1, -1, -1, 1, 1, 1, -1, -1, -1, 1, -1, -1, -1, 1, 1, -1, 1, 1, -1, -1, 1, -1, 1, 1, -1, 1, -1, -1, 1, -1, 1, -1, 1, 1, -1, 1, -1, 1, -1, 1, -1, -1, -1, 1, 1, 1, 1, 1, 1, -1, -1, -1, 1, 1, 1, 1, 1, 1, -1, 1, -1, -1, -1, 1, 1, 1, 1, 1, 1, 1, -1, -1, -1, 1, -1, 1, -1, 1, -1, -1, -1, -1, -1, -1, -1, 1, -1, 1, 1, -1, 1, -1, -1, 1, 1, 1, 1, 1, 1, -1, -1, -1, 1, -1, -1, 1, 1, 1, 1, -1, -1, -1, -1, -1, 1, 1, -1, 1, 1, 1, -1, -1, 1, 1, -1, 1, 1, 1, 1, -1, 1, -1, -1, -1, -1, 1, 1, 1, 1, -1, -1, -1, 1, -1, 1, 1, 1, 1, 1, -1, -1, -1, 1, 1, 1, 1, -1, 1, -1, -1, 1, 1, -1, 1, 1, 1, 1, 1, 1, 1, -1, 1, -1, 1, -1, 1, 1, 1, 1, 1, -1, 1, -1, -1, 1, 1, -1, 1, 1, 1, 1, -1, -1, -1, -1, 1, -1, 1, -1, 1, 1, -1, 1, 1, 1, -1, 1, -1, 1, -1, 1, -1, 1, 1, -1, -1, 1, 1, -1, 1, 1, -1, -1, 1, 1, -1, -1, 1, -1, -1, 1, -1, -1, 1, 1, -1, 1, -1, -1, -1, 1, 1, -1, 1, -1, -1, -1, -1, -1, 1, 1, -1, 1, 1, 1, -1, 1, -1, 1, -1, -1, -1, -1, 1, -1, -1, 1, 1, -1, -1, -1, -1, 1, 1, -1, -1, -1, 1, 1, 1, -1, -1, 1, 1, 1, -1, -1, -1, 1, -1, -1, 1, -1, 1, 1, -1, 1, 1, -1, 1, -1, -1, -1, 1, -1, -1, 1, -1, -1, 1, 1, -1, -1, 1, 1, -1, -1, 1, -1, 1, -1, -1, -1, 1, -1, 1, 1, 1, 1, -1, -1, -1, -1, 1, 1, -1, 1, 1, -1, 1, -1, -1, -1, -1, 1, -1, -1, -1, -1, -1, -1, -1, -1, -1, 1, -1, 1, 1, 1, 1, -1, 1, -1, -1, 1, -1, -1, -1, 1, 1, -1, 1, -1, -1, 1, -1, -1, 1, -1, 1, -1, 1, -1, -1, -1, -1, -1, -1, 1, -1, 1, -1, -1, 1, -1, -1, 1, 1, -1, -1, 1, -1, -1, 1, -1, 1, -1, -1, -1, 1, 1, -1, 1, -1, -1, 1, -1, -1, 1, -1, 1, -1, -1, -1, -1, -1, -1, 1, -1, -1, 1, -1, 1, -1, -1, 1, -1, 1, -1, 1, -1, -1, -1, -1, -1, 1, 1, -1, 1, -1, -1, 1, 1, 1, -1, 1, -1, -1, -1, 1, -1, 1, -1, 1, -1, -1, 1, -1, -1, 1, -1, 1, -1, 1, -1, -1, 1, -1, -1, 1, -1, -1, 1, -1, -1, -1, -1, -1, 1, -1, -1, -1, 1, -1, -1, -1, -1, -1, -1, 1, -1, 1, -1, -1, -1, -1, -1, -1, 1, -1, -1, -1, 1, -1, -1, -1, -1, 1, 1, -1, -1, 1, 1, -1, 1, 1, -1, -1, -1, -1, -1, -1, 1, -1, 1, -1, -1, -1, 1, 1, 1, 1, 1, 1, -1, 1, -1, -1, -1, 1, 1, -1, 1, -1, -1, 1, -1, 1, 1, -1, 1, 1, 1, -1, 1, -1, -1, -1, -1, -1, 1, -1, 1, -1, 1, -1, -1, -1, -1, 1, 1, 1, 1, 1, 1, 1, -1, -1, -1, -1, 1, 1, 1, -1, -1, 1, -1, -1, -1, 1, 1, 1, 1, -1, -1, 1, -1, -1, -1, -1, 1, 1, 1, 1, 1, -1, 1, -1, -1, -1, 1, 1, 1, -1, 1, 1, -1, 1, -1, -1, 1, 1, 1, -1, 1, -1, 1, -1, -1, 1, 1, 1, 1, -1, 1, -1, 1, -1, -1, 1, 1, 1, 1, -1, 1, -1, -1, 1, -1, -1, 1, 1, 1, -1, 1, 1, -1, -1, -1, -1, 1, 1, -1, 1, 1, 1, -1, -1, 1, 1, 1, -1, 1, 1, 1, 1, -1, -1, -1, -1, 1, 1, 1, 1, -1, 1, -1, 1, -1, -1, -1, 1, -1, 1, -1, 1, -1, -1, 1, -1, 1, 1, -1, 1, -1, -1, -1, 1, -1, 1, 1, 1, 1, -1, -1, 1, -1, -1, 1, 1, 1, 1, -1, 1, 1, 1, -1, -1, 1, -1, -1, 1, -1
BQP_DATA, 2396, 10889, -5062.000000, -6218.000000, -14640.000000, -15796.000000, 8192.001344, 7169, 1804
